c Random Network
p max    10      20
n         1  s
n        10  t
a       9       4       8
a       1       4      30
a       6       1      49
a       5       3       7
a       6       4      12
a      10       1       2
a       4       6      14
a       5      10      39
a       3       5      16
a       1       2      42
a       8       5      36
a       4       9      47
a       9       5      27
a      10       5      21
a       7       2       4
a       9       8      36
a       1       6      40
a       6       7       8
a       1       7      15
a       7       6      30
